data;

/* Graphe de l'exercice 1 de la série 6 sur la PLNE (SIO 2024-2025), */

/* Cardinal du stable max = 4 */

/* Cardinal du couplage max = 4 */

/*Nombre de sommets */
param n := 8;

set E :=
 1 2
 1 3
 1 8
 2 3
 2 5
 3 4
 3 5
 3 6
 4 5
 6 7
 7 8
;

end;
